n=150;
k_min=3;
k_max=3;M=[| 1.0, 0.0036000000000000476, 0.0
 | 0.8836, 0.0036000000000000476, 0.0
 | 1.0, 0.0036000000000000476, 0.0
 | 1.0, 0.0036000000000000476, 0.0
 | 1.0, 0.0036000000000000476, 0.0
 | 1.0, 0.0036000000000000476, 0.0
 | 1.0, 0.0036000000000000476, 0.0
 | 0.7744, 0.0036000000000000476, 0.0
 | 0.9604, 0.0036000000000000476, 0.0
 | 0.8836, 0.0036000000000000476, 0.0
 | 1.0, 0.0036000000000000476, 0.0
 | 1.0, 0.0036000000000000476, 0.0
 | 0.9604, 0.0036000000000000476, 0.0
 | 0.9604, 0.0036000000000000476, 0.0
 | 1.0, 0.0036000000000000476, 0.0
 | 1.0, 0.0036000000000000476, 0.0
 | 1.0, 0.0036000000000000476, 0.0
 | 1.0, 0.0036000000000000476, 0.0
 | 1.0, 0.0036000000000000476, 0.0
 | 1.0, 0.0036000000000000476, 0.0
 | 0.8836, 0.0036000000000000476, 0.0
 | 0.8836, 0.0036000000000000476, 0.0
 | 1.0, 0.0036000000000000476, 0.0
 | 1.0, 0.0036000000000000476, 0.0
 | 1.0, 0.0036000000000000476, 0.0
 | 0.8836, 0.0036000000000000476, 0.0
 | 1.0, 0.0036000000000000476, 0.0
 | 0.9604, 0.0036000000000000476, 0.0
 | 1.0, 0.0036000000000000476, 0.0
 | 0.8836, 0.0036000000000000476, 0.0
 | 0.8836, 0.0036000000000000476, 0.0
 | 0.8836, 0.0036000000000000476, 0.0
 | 1.0, 0.0036000000000000476, 0.0
 | 1.0, 0.0036000000000000476, 0.0
 | 0.8836, 0.0036000000000000476, 0.0
 | 0.8836, 0.0036000000000000476, 0.0
 | 0.9216, 0.0036000000000000476, 0.0
 | 0.8836, 0.0036000000000000476, 0.0
 | 0.9604, 0.0036000000000000476, 0.0
 | 1.0, 0.0036000000000000476, 0.0
 | 1.0, 0.0036000000000000476, 0.0
 | 0.9604, 0.0036000000000000476, 0.0
 | 0.9604, 0.0036000000000000476, 0.0
 | 1.0, 0.0036000000000000476, 0.0
 | 1.0, 0.0036000000000000476, 0.0
 | 0.9604, 0.0036000000000000476, 0.0
 | 1.0, 0.0036000000000000476, 0.0
 | 1.0, 0.0036000000000000476, 0.0
 | 0.9604, 0.0036000000000000476, 0.0
 | 1.0, 0.0036000000000000476, 0.0
 | 0.0, 1.0, 0.0036000000000000476
 | 0.0, 0.8836, 0.0036000000000000476
 | 0.0, 1.0, 0.025599999999999956
 | 0.0, 1.0, 0.0036000000000000476
 | 0.0, 0.9604, 0.0036000000000000476
 | 0.0, 1.0, 0.0036000000000000476
 | 0.0, 0.9216, 0.0036000000000000476
 | 0.0036000000000000476, 1.0, 0.0
 | 0.0, 1.0, 0.0036000000000000476
 | 0.0, 0.9216, 0.0036000000000000476
 | 0.0, 0.8836, 0.0036000000000000476
 | 0.0, 0.8836, 0.0036000000000000476
 | 0.0, 1.0, 0.0036000000000000476
 | 0.0, 0.9604, 0.0036000000000000476
 | 0.0, 1.0, 0.0036000000000000476
 | 0.0, 1.0, 0.0036000000000000476
 | 0.0, 0.8836, 0.0036000000000000476
 | 0.0, 0.9216, 0.0036000000000000476
 | 0.0, 1.0, 0.0036000000000000476
 | 0.0, 1.0, 0.0036000000000000476
 | 0.0, 1.0, 0.0036000000000000476
 | 0.0, 0.8464, 0.0036000000000000476
 | 0.0, 1.0, 0.0036000000000000476
 | 0.0, 0.9604, 0.0036000000000000476
 | 0.0, 0.81, 0.0036000000000000476
 | 0.0, 1.0, 0.0036000000000000476
 | 0.0, 1.0, 0.0036000000000000476
 | 0.0, 0.9604, 0.025599999999999956
 | 0.0, 0.8464, 0.0036000000000000476
 | 0.0, 1.0, 0.0036000000000000476
 | 0.0, 0.9216, 0.0036000000000000476
 | 0.0, 1.0, 0.0036000000000000476
 | 0.0, 0.9216, 0.0036000000000000476
 | 0.0, 1.0, 0.0036000000000000476
 | 0.0, 0.81, 0.0036000000000000476
 | 0.0, 0.9216, 0.0036000000000000476
 | 0.0, 1.0, 0.0036000000000000476
 | 0.0, 0.8464, 0.0036000000000000476
 | 0.0, 1.0, 0.0036000000000000476
 | 0.0, 0.8836, 0.0036000000000000476
 | 0.0, 0.9604, 0.0036000000000000476
 | 0.0, 1.0, 0.0036000000000000476
 | 0.0, 0.9216, 0.0036000000000000476
 | 0.0036000000000000476, 1.0, 0.0
 | 0.0, 1.0, 0.0036000000000000476
 | 0.0, 1.0, 0.0036000000000000476
 | 0.0, 1.0, 0.0036000000000000476
 | 0.0, 0.8836, 0.0036000000000000476
 | 0.0036000000000000476, 1.0, 0.0
 | 0.0, 1.0, 0.0036000000000000476
 | 0.0, 1.0, 0.14439999999999997
 | 0.0, 1.0, 0.0036000000000000476
 | 0.0, 0.14439999999999997, 1.0
 | 0.0, 1.0, 0.14439999999999997
 | 0.0, 1.0, 0.14439999999999997
 | 0.0, 0.07840000000000003, 1.0
 | 0.0, 0.81, 0.0036000000000000476
 | 0.0, 0.07840000000000003, 1.0
 | 0.0, 1.0, 0.14439999999999997
 | 0.0, 0.08999999999999997, 0.9216
 | 0.0, 1.0, 0.0484
 | 0.0, 1.0, 0.025599999999999956
 | 0.0, 0.9216, 0.16000000000000003
 | 0.0, 1.0, 0.0036000000000000476
 | 0.0, 0.6084, 0.0036000000000000476
 | 0.0, 0.9604, 0.12959999999999994
 | 0.0, 0.9604, 0.14439999999999997
 | 0.0, 0.07840000000000003, 0.9604
 | 0.0, 0.07840000000000003, 1.0
 | 0.0, 0.9604, 0.0036000000000000476
 | 0.0, 1.0, 0.14439999999999997
 | 0.0, 1.0, 0.0036000000000000476
 | 0.0, 0.07840000000000003, 1.0
 | 0.0, 1.0, 0.0036000000000000476
 | 0.0, 1.0, 0.14439999999999997
 | 0.0, 0.08999999999999997, 0.9604
 | 0.0, 1.0, 0.0036000000000000476
 | 0.0, 1.0, 0.0036000000000000476
 | 0.0, 0.9604, 0.12959999999999994
 | 0.0, 0.12959999999999994, 0.9604
 | 0.0, 0.07840000000000003, 1.0
 | 0.0, 0.07840000000000003, 0.9604
 | 0.0, 0.9604, 0.12959999999999994
 | 0.0, 1.0, 0.0036000000000000476
 | 0.0, 0.7056, 0.025599999999999956
 | 0.0, 0.07840000000000003, 1.0
 | 0.0, 0.9604, 0.12959999999999994
 | 0.0, 1.0, 0.14439999999999997
 | 0.0, 1.0, 0.0036000000000000476
 | 0.0, 0.9216, 0.16000000000000003
 | 0.0, 1.0, 0.14439999999999997
 | 0.0, 0.9216, 0.12959999999999994
 | 0.0, 1.0, 0.0036000000000000476
 | 0.0, 1.0, 0.14439999999999997
 | 0.0, 1.0, 0.14439999999999997
 | 0.0, 0.9216, 0.12959999999999994
 | 0.0, 1.0, 0.0036000000000000476
 | 0.0, 0.9216, 0.0484
 | 0.0, 0.9604, 0.12959999999999994
 | 0.0, 1.0, 0.0036000000000000476 |];
 P=[2, 2, 2, 2, 2, 2, 2, 2, 2, 2, 2, 2, 2, 2, 2, 2, 2, 2, 2, 2, 2, 2, 2, 2, 2, 2, 2, 2, 2, 2, 2, 2, 2, 2, 2, 2, 2, 2, 2, 2, 2, 2, 2, 2, 2, 2, 2, 2, 2, 2, 1, 1, 1, 1, 1, 1, 1, 1, 1, 1, 1, 1, 1, 1, 1, 1, 1, 1, 1, 1, 1, 1, 1, 1, 1, 1, 1, 1, 1, 1, 1, 1, 1, 1, 1, 1, 1, 1, 1, 1, 1, 1, 1, 1, 1, 1, 1, 1, 1, 1, 1, 1, 3, 1, 1, 3, 1, 3, 1, 3, 1, 1, 1, 1, 1, 1, 1, 3, 3, 1, 1, 1, 3, 1, 1, 3, 1, 1, 1, 3, 3, 3, 1, 1, 1, 3, 1, 1, 1, 1, 1, 1, 1, 1, 1, 1, 1, 1, 1, 1 ];